#TARGVOL=5-10

%BLOCK POSITIONS_FRAC
Al 0.0 0.0 0.0 # Al1 % NUM=8
%ENDBLOCK POSITIONS_FRAC

#MINSEP=1.5

