%BLOCK lattice_cart
       5.03191491135841        0.00000000000000        0.00000000000000    
     -0.353591543445015E-51    5.60299348641611        0.00000000000000    
       0.00000000000000        0.00000000000000        6.90215237311418    
%ENDBLOCK lattice_cart


%BLOCK positions_frac
   B              0.652518088379645       0.907368785780154       0.290709790326550
   B              0.347481911620355       0.092631214219847       0.290709790326550
   B              0.152518088379645       0.592631214219847       0.209290209673450
   B              0.847481911620355       0.407368785780154       0.209290209673450
   B              0.347481911620355       0.092631214219847       0.709290209673450
   B              0.652518088379645       0.907368785780154       0.709290209673450
   B              0.847481911620355       0.407368785780154       0.790709790326550
   B              0.152518088379645       0.592631214219847       0.790709790326550
   B              0.147762484243726       0.771442253789979       0.000000000000000
   B              0.852237515756274       0.228557746210023       0.000000000000000
   B              0.647762484243726       0.728557746210023       0.500000000000000
   B              0.352237515756274       0.271442253789978       0.500000000000000
   B              0.835642210936816       0.991564995827491       0.500000000000000
   B              0.164357789063184       0.008435004172510       0.500000000000000
   B              0.335642210936816       0.508435004172511       0.000000000000000
   B              0.664357789063184       0.491564995827491       0.000000000000000
   B              0.339039319590758       0.781365980686207       0.374315297904114
   B              0.660960680409242       0.218634019313795       0.374315297904114
   B              0.839039319590758       0.718634019313795       0.125684702095886
   B              0.160960680409242       0.281365980686207       0.125684702095886
   B              0.660960680409242       0.218634019313795       0.625684702095886
   B              0.339039319590758       0.781365980686207       0.625684702095886
   B              0.160960680409242       0.281365980686207       0.874315297904114
   B              0.839039319590758       0.718634019313795       0.874315297904114
   B              0.170185607224882       0.520647225775867       0.500000000000000
   B              0.829814392775118       0.479352774224135       0.500000000000000
   B              0.670185607224882       0.979352774224135       0.000000000000000
   B              0.329814392775118       0.020647225775866       0.000000000000000
%ENDBLOCK positions_frac
#######################################################
#CASTEP cell file: B-gamma.cell
#Created using the Atomic Simulation Environment (ASE)#
#######################################################


 
KPOINTS_MP_SPACING 0.05
 
SYMMETRY_GENERATE
SNAP_TO_SYMMETRY
 
%BLOCK SPECIES_POT
QC5
%ENDBLOCK SPECIES_POT
 
%BLOCK EXTERNAL_PRESSURE
0 0 0
0 0
0
%ENDBLOCK EXTERNAL_PRESSURE
