%BLOCK LATTICE_ABC
5.04280  5.61214  6.91499
90.0000  90.0000  90.0000
#FIX
%ENDBLOCK LATTICE_CART


%BLOCK POSITIONS_FRAC
B 0.0 0.0 0.0 # B1 % NUM=28
%ENDBLOCK POSITIONS_FRAC

##SPECIES=B
##NATOM=3-9
##FOCUS=1
 
#SYMMOPS=2-4
#NFORM=1
##SGRANK=20
##ADJGEN=0-1
#SLACK=0.25
#OVERLAP=0.1
#MINSEP=1.7
##COMPACT
##CELLADAPT
##SYSTEM={Rhom,Tric,Mono,Cubi,Hexa,Orth,Tetra}
 
KPOINTS_MP_SPACING 0.05
 
SYMMETRY_GENERATE
SNAP_TO_SYMMETRY
 
%BLOCK SPECIES_POT
B B_QC5_PBE_OTF.usp
%ENDBLOCK SPECIES_POT
 
%BLOCK EXTERNAL_PRESSURE
0 0 0
0 0
0
%ENDBLOCK EXTERNAL_PRESSURE
