#              Generated by Buildcell
#
# at 12:28:39 (GMT+1.0) 21st September 2022
# in /home/bonan/appdir/jdev/CellTools-project/EDDP.jl/examples/new-test
# on DESKTOP-EMLNJAS
# by bonan
#
# compiler GCC version 9.4.0
# options -cpp -imultiarch x86_64-linux-gnu -mtune=generic -march=x86-64 -g -Og -fpre-include=/usr/include/finclude/math-vector-fortran.h
#
# seed  -189147612  1016021758  -197342615   278782230   325010577  1841888438  -541979609  1007671292
#
#      Author: C. J. Pickard (cjp20@cam.ac.uk)
#                Space group: Pba2
#

%BLOCK LATTICE_ABC
      5.04280      5.61214      6.91499
     90.00000     90.00000     90.00000
%ENDBLOCK LATTICE_ABC

%BLOCK POSITIONS_FRAC
   B       -0.0430717       -0.3954552       -0.1084041
   B       -0.0430717        0.3954552        0.1084041
   B       -0.0430717        0.1045448       -0.3915959
   B       -0.0430717       -0.1045448        0.3915959
   B        0.0614606       -0.1081676       -0.0921361
   B        0.0614606        0.1081676        0.0921361
   B        0.0614606        0.3918324       -0.4078639
   B        0.0614606       -0.3918324        0.4078639
   B       -0.3432262       -0.1365781       -0.4468686
   B       -0.3432262        0.1365781        0.4468686
   B       -0.3432262        0.3634219       -0.0531314
   B       -0.3432262       -0.3634219        0.0531314
   B       -0.2145029        0.4389178       -0.2719299
   B       -0.2145029       -0.4389178        0.2719299
   B       -0.2145029       -0.0610822       -0.2280701
   B       -0.2145029        0.0610822        0.2280701
   B        0.3647912        0.2307158        0.1323179
   B        0.3647912       -0.2307158       -0.1323179
   B        0.3647912       -0.2692842        0.3676821
   B        0.3647912        0.2692842       -0.3676821
   B        0.2373946        0.0115237       -0.2779915
   B        0.2373946       -0.0115237        0.2779915
   B        0.2373946       -0.4884763       -0.2220085
   B        0.2373946        0.4884763        0.2220085
   B        0.0422740        0.3030512        0.3575058
   B        0.0422740       -0.3030512       -0.3575058
   B        0.0422740       -0.1969488        0.1424942
   B        0.0422740        0.1969488       -0.1424942
%ENDBLOCK POSITIONS_FRAC

KPOINTS_MP_SPACING 0.05

%BLOCK CELL_CONSTRAINTS
 1 2 3
 0 0 0
%ENDBLOCK CELL_CONSTRAINTS

%BLOCK SPECIES_POT
B B_QC5_PBE_OTF.usp
%ENDBLOCK SPECIES_POT

SNAP_TO_SYMMETRY
SYMMETRY_GENERATE

