%BLOCK LATTICE_CART
1.930978 0 0
0 1.930978 0
0 0 1.930978
%ENDBLOCK LATTICE_CART

#VARVOL=7.5

%BLOCK POSITIONS_FRAC
B 0.0 0.0 0.0 # B1 % NUM=28
%ENDBLOCK POSITIONS_FRAC

##SPECIES=B
##NATOM=3-9
##FOCUS=1
 
##SYMMOPS=2-4
##SGRANK=20
##ADJGEN=0-1
#SLACK=0.25
#OVERLAP=0.1
#MINSEP=1.7
##COMPACT
##CELLADAPT
##SYSTEM={Rhom,Tric,Mono,Cubi,Hexa,Orth,Tetra}
 
KPOINTS_MP_SPACING 0.05
 
SYMMETRY_GENERATE
SNAP_TO_SYMMETRY
 
%BLOCK SPECIES_POT
QC5
%ENDBLOCK SPECIES_POT
 
%BLOCK EXTERNAL_PRESSURE
0 0 0
0 0
0
%ENDBLOCK EXTERNAL_PRESSURE
