#######################################################
#CASTEP cell file: B-gamma.cell
#Created using the Atomic Simulation Environment (ASE)#
#######################################################

%BLOCK LATTICE_CART
 5.042795  0.000000  0.000000
 0.000000  5.612143  0.000000
 0.000000  0.000000  6.914994
%ENDBLOCK LATTICE_CART

%BLOCK POSITIONS_ABS
B  3.290464  5.091858  2.010106
B  1.752331  0.520285  2.010106
B  0.769067  3.326356  1.447391
B  4.273728  2.285787  1.447391
B  1.752331  0.520285  4.904888
B  3.290464  5.091858  4.904888
B  4.273728  2.285787  5.467603
B  0.769067  3.326356  5.467603
B  0.744735  4.329931  0.000000
B  4.298060  1.282212  0.000000
B  3.266133  4.088283  3.457497
B  1.776662  1.523860  3.457497
B  4.212832  5.564849  3.457497
B  0.829963  0.047294  3.457497
B  1.691434  2.853365  0.000000
B  3.351361  2.758778  0.000000
B  1.709003  4.384498  2.588013
B  3.333792  1.227645  2.588013
B  4.230401  4.033717  0.869484
B  0.812394  1.578426  0.869484
B  3.333792  1.227645  4.326981
B  1.709003  4.384498  4.326981
B  0.812394  1.578426  6.045510
B  4.230401  4.033717  6.045510
B  0.858859  2.923646  3.457497
B  4.183936  2.688497  3.457497
B  3.380256  5.494569  0.000000
B  1.662539  0.117574  0.000000
%ENDBLOCK POSITIONS_ABS

