%BLOCK LATTICE_CART
1.930978 0 0
0 1.930978 0
0 0 1.930978
%ENDBLOCK LATTICE_CART

#VARVOL=8 

%BLOCK POSITIONS_FRAC
B 0.0 0.0 0.0 # B1 % NUM=8
%ENDBLOCK POSITIONS_FRAC


#MINSEP=2.0
 
KPOINTS_MP_SPACING 0.05
 
SYMMETRY_GENERATE
SNAP_TO_SYMMETRY
 
%BLOCK SPECIES_POT
B B_QC5_PBE_OTF.usp
%ENDBLOCK SPECIES_POT
 
%BLOCK EXTERNAL_PRESSURE
0 0 0
0 0
0
%ENDBLOCK EXTERNAL_PRESSURE
